p cnf 755 2855
3 49 0
-3 -49 0
4 50 0
-4 -50 0
5 51 0
-5 -51 0
6 52 0
-6 -52 0
7 53 0
-7 -53 0
8 54 0
-8 -54 0
9 55 0
-9 -55 0
10 56 0
-10 -56 0
11 57 0
-11 -57 0
367 -11 0
-367 11 0
368 -13 0
-368 13 0
13 58 0
-13 -58 0
14 59 0
-14 -59 0
15 60 0
-15 -60 0
16 61 0
-16 -61 0
17 62 0
-17 -62 0
18 63 0
-18 -63 0
19 64 0
-19 -64 0
20 65 0
-20 -65 0
21 66 0
-21 -66 0
369 -19 0
-369 19 0
370 -16 0
-370 16 0
23 67 0
-23 -67 0
24 68 0
-24 -68 0
25 69 0
-25 -69 0
115 -77 0
-115 77 0
-78 -115 0
-79 -115 0
-80 -115 0
-77 -26 -114 0
-77 26 0
-78 -26 -114 0
-78 26 0
-79 -26 -114 0
-79 26 0
-80 -26 -114 0
-80 26 0
118 -25 24 0
-118 25 0
-118 -24 0
371 -118 0
-371 118 0
114 -118 0
-114 118 0
119 -36 -11 10 0
-119 36 0
-119 11 0
-119 -10 0
372 -119 0
-372 119 0
373 -77 -119 85 0
-373 77 0
-373 119 0
-373 -85 0
374 -122 -119 85 77 0
-374 122 0
-374 119 0
-374 -85 0
-374 -77 0
375 -122 -85 -77 -119 0
-375 122 0
-375 85 0
-375 77 0
-375 119 0
376 -78 -119 86 0
-376 78 0
-376 119 0
-376 -86 0
377 -123 -119 86 78 0
-377 123 0
-377 119 0
-377 -86 0
-377 -78 0
378 -123 -86 -78 -119 0
-378 123 0
-378 86 0
-378 78 0
-378 119 0
379 -79 -119 87 0
-379 79 0
-379 119 0
-379 -87 0
380 -124 -119 87 79 0
-380 124 0
-380 119 0
-380 -87 0
-380 -79 0
381 -124 -87 -79 -119 0
-381 124 0
-381 87 0
-381 79 0
-381 119 0
124 -80 -119 88 0
-124 80 0
-124 119 0
-124 -88 0
120 -119 -121 0
-120 119 0
-120 121 0
382 -120 114 0
-382 120 0
-382 -114 0
383 -85 -77 -119 0
-383 85 0
-383 77 0
-383 119 0
384 -119 85 77 0
-384 119 0
-384 -85 0
-384 -77 0
385 -125 -86 -78 -119 0
-385 125 0
-385 86 0
-385 78 0
-385 119 0
386 -125 -119 86 78 0
-386 125 0
-386 119 0
-386 -86 0
-386 -78 0
387 -126 -87 -79 -119 0
-387 126 0
-387 87 0
-387 79 0
-387 119 0
388 -126 -119 87 79 0
-388 126 0
-388 119 0
-388 -87 0
-388 -79 0
128 -77 -119 85 0
-128 77 0
-128 119 0
-128 -85 0
389 -125 -78 -119 86 0
-389 125 0
-389 78 0
-389 119 0
-389 -86 0
390 -128 -86 -119 78 0
-390 128 0
-390 86 0
-390 119 0
-390 -78 0
391 -126 -79 -119 87 0
-391 126 0
-391 79 0
-391 119 0
-391 -87 0
392 -129 -87 -119 79 0
-392 129 0
-392 87 0
-392 119 0
-392 -79 0
393 -127 -80 -119 88 0
-393 127 0
-393 80 0
-393 119 0
-393 -88 0
394 -130 -88 -119 80 0
-394 130 0
-394 88 0
-394 119 0
-394 -80 0
-120 131 0
395 -119 -131 0
-395 119 0
-395 131 0
132 -35 -31 30 0
-132 35 0
-132 31 0
-132 -30 0
396 -132 0
-396 132 0
397 -77 -132 81 0
-397 77 0
-397 132 0
-397 -81 0
398 -135 -132 81 77 0
-398 135 0
-398 132 0
-398 -81 0
-398 -77 0
399 -135 -81 -77 -132 0
-399 135 0
-399 81 0
-399 77 0
-399 132 0
400 -78 -132 82 0
-400 78 0
-400 132 0
-400 -82 0
401 -136 -132 82 78 0
-401 136 0
-401 132 0
-401 -82 0
-401 -78 0
402 -136 -82 -78 -132 0
-402 136 0
-402 82 0
-402 78 0
-402 132 0
403 -79 -132 83 0
-403 79 0
-403 132 0
-403 -83 0
404 -137 -132 83 79 0
-404 137 0
-404 132 0
-404 -83 0
-404 -79 0
405 -137 -83 -79 -132 0
-405 137 0
-405 83 0
-405 79 0
-405 132 0
137 -80 -132 84 0
-137 80 0
-137 132 0
-137 -84 0
133 -132 -134 0
-133 132 0
-133 134 0
406 -133 114 0
-406 133 0
-406 -114 0
407 -81 -77 -132 0
-407 81 0
-407 77 0
-407 132 0
408 -132 81 77 0
-408 132 0
-408 -81 0
-408 -77 0
409 -138 -82 -78 -132 0
-409 138 0
-409 82 0
-409 78 0
-409 132 0
410 -138 -132 82 78 0
-410 138 0
-410 132 0
-410 -82 0
-410 -78 0
411 -139 -83 -79 -132 0
-411 139 0
-411 83 0
-411 79 0
-411 132 0
412 -139 -132 83 79 0
-412 139 0
-412 132 0
-412 -83 0
-412 -79 0
141 -77 -132 81 0
-141 77 0
-141 132 0
-141 -81 0
413 -138 -78 -132 82 0
-413 138 0
-413 78 0
-413 132 0
-413 -82 0
414 -141 -82 -132 78 0
-414 141 0
-414 82 0
-414 132 0
-414 -78 0
415 -139 -79 -132 83 0
-415 139 0
-415 79 0
-415 132 0
-415 -83 0
416 -142 -83 -132 79 0
-416 142 0
-416 83 0
-416 132 0
-416 -79 0
417 -140 -80 -132 84 0
-417 140 0
-417 80 0
-417 132 0
-417 -84 0
418 -143 -84 -132 80 0
-418 143 0
-418 84 0
-418 132 0
-418 -80 0
-133 144 0
419 -132 -144 0
-419 132 0
-419 144 0
-116 117 0
-26 116 114 0
27 70 0
-27 -70 0
28 71 0
-28 -71 0
29 72 0
-29 -72 0
30 73 0
-30 -73 0
31 74 0
-31 -74 0
420 -28 0
-420 28 0
421 -29 0
-421 29 0
33 75 0
-33 -75 0
34 76 0
-34 -76 0
147 -81 0
-147 81 0
-82 -147 0
-83 -147 0
-84 -147 0
-81 -35 -146 0
-81 35 0
-82 -35 -146 0
-82 35 0
-83 -35 -146 0
-83 35 0
-84 -35 -146 0
-84 35 0
150 -26 -29 27 28 0
-150 26 0
-150 29 0
-150 -27 0
-150 -28 0
35 -150 0
-35 150 0
422 -81 -150 77 0
-422 81 0
-422 150 0
-422 -77 0
423 -153 -150 77 81 0
-423 153 0
-423 150 0
-423 -77 0
-423 -81 0
424 -153 -77 -81 -150 0
-424 153 0
-424 77 0
-424 81 0
-424 150 0
425 -82 -150 78 0
-425 82 0
-425 150 0
-425 -78 0
426 -154 -150 78 82 0
-426 154 0
-426 150 0
-426 -78 0
-426 -82 0
427 -154 -78 -82 -150 0
-427 154 0
-427 78 0
-427 82 0
-427 150 0
428 -83 -150 79 0
-428 83 0
-428 150 0
-428 -79 0
429 -155 -150 79 83 0
-429 155 0
-429 150 0
-429 -79 0
-429 -83 0
430 -155 -79 -83 -150 0
-430 155 0
-430 79 0
-430 83 0
-430 150 0
155 -84 -150 80 0
-155 84 0
-155 150 0
-155 -80 0
151 -150 -152 0
-151 150 0
-151 152 0
148 -151 146 0
-148 151 0
-148 -146 0
431 -77 -81 -150 0
-431 77 0
-431 81 0
-431 150 0
432 -150 77 81 0
-432 150 0
-432 -77 0
-432 -81 0
433 -156 -78 -82 -150 0
-433 156 0
-433 78 0
-433 82 0
-433 150 0
434 -156 -150 78 82 0
-434 156 0
-434 150 0
-434 -78 0
-434 -82 0
435 -157 -79 -83 -150 0
-435 157 0
-435 79 0
-435 83 0
-435 150 0
436 -157 -150 79 83 0
-436 157 0
-436 150 0
-436 -79 0
-436 -83 0
159 -81 -150 77 0
-159 81 0
-159 150 0
-159 -77 0
437 -156 -82 -150 78 0
-437 156 0
-437 82 0
-437 150 0
-437 -78 0
438 -159 -78 -150 82 0
-438 159 0
-438 78 0
-438 150 0
-438 -82 0
439 -157 -83 -150 79 0
-439 157 0
-439 83 0
-439 150 0
-439 -79 0
440 -160 -79 -150 83 0
-440 160 0
-440 79 0
-440 150 0
-440 -83 0
441 -158 -84 -150 80 0
-441 158 0
-441 84 0
-441 150 0
-441 -80 0
442 -161 -80 -150 84 0
-442 161 0
-442 80 0
-442 150 0
-442 -84 0
-151 162 0
149 -150 -162 0
-149 150 0
-149 162 0
-148 149 0
-35 148 146 0
165 -85 0
-165 85 0
-86 -165 0
-87 -165 0
-88 -165 0
-85 -36 -164 0
-85 36 0
-86 -36 -164 0
-86 36 0
-87 -36 -164 0
-87 36 0
-88 -36 -164 0
-88 36 0
168 -26 -33 27 32 0
-168 26 0
-168 33 0
-168 -27 0
-168 -32 0
443 -168 0
-443 168 0
444 -85 -168 77 0
-444 85 0
-444 168 0
-444 -77 0
445 -171 -168 77 85 0
-445 171 0
-445 168 0
-445 -77 0
-445 -85 0
446 -171 -77 -85 -168 0
-446 171 0
-446 77 0
-446 85 0
-446 168 0
447 -86 -168 78 0
-447 86 0
-447 168 0
-447 -78 0
448 -172 -168 78 86 0
-448 172 0
-448 168 0
-448 -78 0
-448 -86 0
449 -172 -78 -86 -168 0
-449 172 0
-449 78 0
-449 86 0
-449 168 0
450 -87 -168 79 0
-450 87 0
-450 168 0
-450 -79 0
451 -173 -168 79 87 0
-451 173 0
-451 168 0
-451 -79 0
-451 -87 0
452 -173 -79 -87 -168 0
-452 173 0
-452 79 0
-452 87 0
-452 168 0
173 -88 -168 80 0
-173 88 0
-173 168 0
-173 -80 0
169 -168 -170 0
-169 168 0
-169 170 0
453 -169 164 0
-453 169 0
-453 -164 0
454 -77 -85 -168 0
-454 77 0
-454 85 0
-454 168 0
455 -168 77 85 0
-455 168 0
-455 -77 0
-455 -85 0
456 -174 -78 -86 -168 0
-456 174 0
-456 78 0
-456 86 0
-456 168 0
457 -174 -168 78 86 0
-457 174 0
-457 168 0
-457 -78 0
-457 -86 0
458 -175 -79 -87 -168 0
-458 175 0
-458 79 0
-458 87 0
-458 168 0
459 -175 -168 79 87 0
-459 175 0
-459 168 0
-459 -79 0
-459 -87 0
177 -85 -168 77 0
-177 85 0
-177 168 0
-177 -77 0
460 -174 -86 -168 78 0
-460 174 0
-460 86 0
-460 168 0
-460 -78 0
461 -177 -78 -168 86 0
-461 177 0
-461 78 0
-461 168 0
-461 -86 0
462 -175 -87 -168 79 0
-462 175 0
-462 87 0
-462 168 0
-462 -79 0
463 -178 -79 -168 87 0
-463 178 0
-463 79 0
-463 168 0
-463 -87 0
464 -176 -88 -168 80 0
-464 176 0
-464 88 0
-464 168 0
-464 -80 0
465 -179 -80 -168 88 0
-465 179 0
-465 80 0
-465 168 0
-465 -88 0
-169 180 0
466 -168 -180 0
-466 168 0
-466 180 0
181 -37 -23 15 22 0
-181 37 0
-181 23 0
-181 -15 0
-181 -22 0
467 -181 0
-467 181 0
468 -85 -181 89 0
-468 85 0
-468 181 0
-468 -89 0
469 -184 -181 89 85 0
-469 184 0
-469 181 0
-469 -89 0
-469 -85 0
470 -184 -89 -85 -181 0
-470 184 0
-470 89 0
-470 85 0
-470 181 0
471 -86 -181 90 0
-471 86 0
-471 181 0
-471 -90 0
472 -185 -181 90 86 0
-472 185 0
-472 181 0
-472 -90 0
-472 -86 0
473 -185 -90 -86 -181 0
-473 185 0
-473 90 0
-473 86 0
-473 181 0
474 -87 -181 91 0
-474 87 0
-474 181 0
-474 -91 0
475 -186 -181 91 87 0
-475 186 0
-475 181 0
-475 -91 0
-475 -87 0
476 -186 -91 -87 -181 0
-476 186 0
-476 91 0
-476 87 0
-476 181 0
186 -88 -181 92 0
-186 88 0
-186 181 0
-186 -92 0
182 -181 -183 0
-182 181 0
-182 183 0
477 -182 164 0
-477 182 0
-477 -164 0
478 -89 -85 -181 0
-478 89 0
-478 85 0
-478 181 0
479 -181 89 85 0
-479 181 0
-479 -89 0
-479 -85 0
480 -187 -90 -86 -181 0
-480 187 0
-480 90 0
-480 86 0
-480 181 0
481 -187 -181 90 86 0
-481 187 0
-481 181 0
-481 -90 0
-481 -86 0
482 -188 -91 -87 -181 0
-482 188 0
-482 91 0
-482 87 0
-482 181 0
483 -188 -181 91 87 0
-483 188 0
-483 181 0
-483 -91 0
-483 -87 0
190 -85 -181 89 0
-190 85 0
-190 181 0
-190 -89 0
484 -187 -86 -181 90 0
-484 187 0
-484 86 0
-484 181 0
-484 -90 0
485 -190 -90 -181 86 0
-485 190 0
-485 90 0
-485 181 0
-485 -86 0
486 -188 -87 -181 91 0
-486 188 0
-486 87 0
-486 181 0
-486 -91 0
487 -191 -91 -181 87 0
-487 191 0
-487 91 0
-487 181 0
-487 -87 0
488 -189 -88 -181 92 0
-488 189 0
-488 88 0
-488 181 0
-488 -92 0
489 -192 -92 -181 88 0
-489 192 0
-489 92 0
-489 181 0
-489 -88 0
-182 193 0
490 -181 -193 0
-490 181 0
-490 193 0
194 -38 -9 7 8 0
-194 38 0
-194 9 0
-194 -7 0
-194 -8 0
491 -194 0
-491 194 0
492 -85 -194 93 0
-492 85 0
-492 194 0
-492 -93 0
493 -197 -194 93 85 0
-493 197 0
-493 194 0
-493 -93 0
-493 -85 0
494 -197 -93 -85 -194 0
-494 197 0
-494 93 0
-494 85 0
-494 194 0
495 -86 -194 94 0
-495 86 0
-495 194 0
-495 -94 0
496 -198 -194 94 86 0
-496 198 0
-496 194 0
-496 -94 0
-496 -86 0
497 -198 -94 -86 -194 0
-497 198 0
-497 94 0
-497 86 0
-497 194 0
498 -87 -194 95 0
-498 87 0
-498 194 0
-498 -95 0
499 -199 -194 95 87 0
-499 199 0
-499 194 0
-499 -95 0
-499 -87 0
500 -199 -95 -87 -194 0
-500 199 0
-500 95 0
-500 87 0
-500 194 0
199 -88 -194 96 0
-199 88 0
-199 194 0
-199 -96 0
195 -194 -196 0
-195 194 0
-195 196 0
501 -195 164 0
-501 195 0
-501 -164 0
502 -93 -85 -194 0
-502 93 0
-502 85 0
-502 194 0
503 -194 93 85 0
-503 194 0
-503 -93 0
-503 -85 0
504 -200 -94 -86 -194 0
-504 200 0
-504 94 0
-504 86 0
-504 194 0
505 -200 -194 94 86 0
-505 200 0
-505 194 0
-505 -94 0
-505 -86 0
506 -201 -95 -87 -194 0
-506 201 0
-506 95 0
-506 87 0
-506 194 0
507 -201 -194 95 87 0
-507 201 0
-507 194 0
-507 -95 0
-507 -87 0
203 -85 -194 93 0
-203 85 0
-203 194 0
-203 -93 0
508 -200 -86 -194 94 0
-508 200 0
-508 86 0
-508 194 0
-508 -94 0
509 -203 -94 -194 86 0
-509 203 0
-509 94 0
-509 194 0
-509 -86 0
510 -201 -87 -194 95 0
-510 201 0
-510 87 0
-510 194 0
-510 -95 0
511 -204 -95 -194 87 0
-511 204 0
-511 95 0
-511 194 0
-511 -87 0
512 -202 -88 -194 96 0
-512 202 0
-512 88 0
-512 194 0
-512 -96 0
513 -205 -96 -194 88 0
-513 205 0
-513 96 0
-513 194 0
-513 -88 0
-195 206 0
514 -194 -206 0
-514 194 0
-514 206 0
-166 167 0
-36 166 164 0
209 -89 0
-209 89 0
-90 -209 0
-91 -209 0
-92 -209 0
-89 -37 -208 0
-89 37 0
-90 -37 -208 0
-90 37 0
-91 -37 -208 0
-91 37 0
-92 -37 -208 0
-92 37 0
212 -36 -14 10 12 0
-212 36 0
-212 14 0
-212 -10 0
-212 -12 0
515 -212 0
-515 212 0
516 -89 -212 85 0
-516 89 0
-516 212 0
-516 -85 0
517 -215 -212 85 89 0
-517 215 0
-517 212 0
-517 -85 0
-517 -89 0
518 -215 -85 -89 -212 0
-518 215 0
-518 85 0
-518 89 0
-518 212 0
519 -90 -212 86 0
-519 90 0
-519 212 0
-519 -86 0
520 -216 -212 86 90 0
-520 216 0
-520 212 0
-520 -86 0
-520 -90 0
521 -216 -86 -90 -212 0
-521 216 0
-521 86 0
-521 90 0
-521 212 0
522 -91 -212 87 0
-522 91 0
-522 212 0
-522 -87 0
523 -217 -212 87 91 0
-523 217 0
-523 212 0
-523 -87 0
-523 -91 0
524 -217 -87 -91 -212 0
-524 217 0
-524 87 0
-524 91 0
-524 212 0
217 -92 -212 88 0
-217 92 0
-217 212 0
-217 -88 0
213 -212 -214 0
-213 212 0
-213 214 0
525 -213 208 0
-525 213 0
-525 -208 0
526 -85 -89 -212 0
-526 85 0
-526 89 0
-526 212 0
527 -212 85 89 0
-527 212 0
-527 -85 0
-527 -89 0
528 -218 -86 -90 -212 0
-528 218 0
-528 86 0
-528 90 0
-528 212 0
529 -218 -212 86 90 0
-529 218 0
-529 212 0
-529 -86 0
-529 -90 0
530 -219 -87 -91 -212 0
-530 219 0
-530 87 0
-530 91 0
-530 212 0
531 -219 -212 87 91 0
-531 219 0
-531 212 0
-531 -87 0
-531 -91 0
221 -89 -212 85 0
-221 89 0
-221 212 0
-221 -85 0
532 -218 -90 -212 86 0
-532 218 0
-532 90 0
-532 212 0
-532 -86 0
533 -221 -86 -212 90 0
-533 221 0
-533 86 0
-533 212 0
-533 -90 0
534 -219 -91 -212 87 0
-534 219 0
-534 91 0
-534 212 0
-534 -87 0
535 -222 -87 -212 91 0
-535 222 0
-535 87 0
-535 212 0
-535 -91 0
536 -220 -92 -212 88 0
-536 220 0
-536 92 0
-536 212 0
-536 -88 0
537 -223 -88 -212 92 0
-537 223 0
-537 88 0
-537 212 0
-537 -92 0
-213 224 0
538 -212 -224 0
-538 212 0
-538 224 0
225 -39 -18 17 0
-225 39 0
-225 18 0
-225 -17 0
539 -225 0
-539 225 0
540 -89 -225 97 0
-540 89 0
-540 225 0
-540 -97 0
541 -228 -225 97 89 0
-541 228 0
-541 225 0
-541 -97 0
-541 -89 0
542 -228 -97 -89 -225 0
-542 228 0
-542 97 0
-542 89 0
-542 225 0
543 -90 -225 98 0
-543 90 0
-543 225 0
-543 -98 0
544 -229 -225 98 90 0
-544 229 0
-544 225 0
-544 -98 0
-544 -90 0
545 -229 -98 -90 -225 0
-545 229 0
-545 98 0
-545 90 0
-545 225 0
546 -91 -225 99 0
-546 91 0
-546 225 0
-546 -99 0
547 -230 -225 99 91 0
-547 230 0
-547 225 0
-547 -99 0
-547 -91 0
548 -230 -99 -91 -225 0
-548 230 0
-548 99 0
-548 91 0
-548 225 0
230 -92 -225 100 0
-230 92 0
-230 225 0
-230 -100 0
226 -225 -227 0
-226 225 0
-226 227 0
549 -226 208 0
-549 226 0
-549 -208 0
550 -97 -89 -225 0
-550 97 0
-550 89 0
-550 225 0
551 -225 97 89 0
-551 225 0
-551 -97 0
-551 -89 0
552 -231 -98 -90 -225 0
-552 231 0
-552 98 0
-552 90 0
-552 225 0
553 -231 -225 98 90 0
-553 231 0
-553 225 0
-553 -98 0
-553 -90 0
554 -232 -99 -91 -225 0
-554 232 0
-554 99 0
-554 91 0
-554 225 0
555 -232 -225 99 91 0
-555 232 0
-555 225 0
-555 -99 0
-555 -91 0
234 -89 -225 97 0
-234 89 0
-234 225 0
-234 -97 0
556 -231 -90 -225 98 0
-556 231 0
-556 90 0
-556 225 0
-556 -98 0
557 -234 -98 -225 90 0
-557 234 0
-557 98 0
-557 225 0
-557 -90 0
558 -232 -91 -225 99 0
-558 232 0
-558 91 0
-558 225 0
-558 -99 0
559 -235 -99 -225 91 0
-559 235 0
-559 99 0
-559 225 0
-559 -91 0
560 -233 -92 -225 100 0
-560 233 0
-560 92 0
-560 225 0
-560 -100 0
561 -236 -100 -225 92 0
-561 236 0
-561 100 0
-561 225 0
-561 -92 0
-226 237 0
562 -225 -237 0
-562 225 0
-562 237 0
238 -40 -21 20 0
-238 40 0
-238 21 0
-238 -20 0
563 -238 0
-563 238 0
564 -89 -238 101 0
-564 89 0
-564 238 0
-564 -101 0
565 -241 -238 101 89 0
-565 241 0
-565 238 0
-565 -101 0
-565 -89 0
566 -241 -101 -89 -238 0
-566 241 0
-566 101 0
-566 89 0
-566 238 0
567 -90 -238 102 0
-567 90 0
-567 238 0
-567 -102 0
568 -242 -238 102 90 0
-568 242 0
-568 238 0
-568 -102 0
-568 -90 0
569 -242 -102 -90 -238 0
-569 242 0
-569 102 0
-569 90 0
-569 238 0
570 -91 -238 103 0
-570 91 0
-570 238 0
-570 -103 0
571 -243 -238 103 91 0
-571 243 0
-571 238 0
-571 -103 0
-571 -91 0
572 -243 -103 -91 -238 0
-572 243 0
-572 103 0
-572 91 0
-572 238 0
243 -92 -238 104 0
-243 92 0
-243 238 0
-243 -104 0
239 -238 -240 0
-239 238 0
-239 240 0
573 -239 208 0
-573 239 0
-573 -208 0
574 -101 -89 -238 0
-574 101 0
-574 89 0
-574 238 0
575 -238 101 89 0
-575 238 0
-575 -101 0
-575 -89 0
576 -244 -102 -90 -238 0
-576 244 0
-576 102 0
-576 90 0
-576 238 0
577 -244 -238 102 90 0
-577 244 0
-577 238 0
-577 -102 0
-577 -90 0
578 -245 -103 -91 -238 0
-578 245 0
-578 103 0
-578 91 0
-578 238 0
579 -245 -238 103 91 0
-579 245 0
-579 238 0
-579 -103 0
-579 -91 0
247 -89 -238 101 0
-247 89 0
-247 238 0
-247 -101 0
580 -244 -90 -238 102 0
-580 244 0
-580 90 0
-580 238 0
-580 -102 0
581 -247 -102 -238 90 0
-581 247 0
-581 102 0
-581 238 0
-581 -90 0
582 -245 -91 -238 103 0
-582 245 0
-582 91 0
-582 238 0
-582 -103 0
583 -248 -103 -238 91 0
-583 248 0
-583 103 0
-583 238 0
-583 -91 0
584 -246 -92 -238 104 0
-584 246 0
-584 92 0
-584 238 0
-584 -104 0
585 -249 -104 -238 92 0
-585 249 0
-585 104 0
-585 238 0
-585 -92 0
-239 250 0
586 -238 -250 0
-586 238 0
-586 250 0
-210 211 0
-37 210 208 0
253 -93 0
-253 93 0
-94 -253 0
-95 -253 0
-96 -253 0
-93 -38 -252 0
-93 38 0
-94 -38 -252 0
-94 38 0
-95 -38 -252 0
-95 38 0
-96 -38 -252 0
-96 38 0
256 -36 -13 10 11 0
-256 36 0
-256 13 0
-256 -10 0
-256 -11 0
587 -256 0
-587 256 0
588 -93 -256 85 0
-588 93 0
-588 256 0
-588 -85 0
589 -259 -256 85 93 0
-589 259 0
-589 256 0
-589 -85 0
-589 -93 0
590 -259 -85 -93 -256 0
-590 259 0
-590 85 0
-590 93 0
-590 256 0
591 -94 -256 86 0
-591 94 0
-591 256 0
-591 -86 0
592 -260 -256 86 94 0
-592 260 0
-592 256 0
-592 -86 0
-592 -94 0
593 -260 -86 -94 -256 0
-593 260 0
-593 86 0
-593 94 0
-593 256 0
594 -95 -256 87 0
-594 95 0
-594 256 0
-594 -87 0
595 -261 -256 87 95 0
-595 261 0
-595 256 0
-595 -87 0
-595 -95 0
596 -261 -87 -95 -256 0
-596 261 0
-596 87 0
-596 95 0
-596 256 0
261 -96 -256 88 0
-261 96 0
-261 256 0
-261 -88 0
257 -256 -258 0
-257 256 0
-257 258 0
597 -257 252 0
-597 257 0
-597 -252 0
598 -85 -93 -256 0
-598 85 0
-598 93 0
-598 256 0
599 -256 85 93 0
-599 256 0
-599 -85 0
-599 -93 0
600 -262 -86 -94 -256 0
-600 262 0
-600 86 0
-600 94 0
-600 256 0
601 -262 -256 86 94 0
-601 262 0
-601 256 0
-601 -86 0
-601 -94 0
602 -263 -87 -95 -256 0
-602 263 0
-602 87 0
-602 95 0
-602 256 0
603 -263 -256 87 95 0
-603 263 0
-603 256 0
-603 -87 0
-603 -95 0
265 -93 -256 85 0
-265 93 0
-265 256 0
-265 -85 0
604 -262 -94 -256 86 0
-604 262 0
-604 94 0
-604 256 0
-604 -86 0
605 -265 -86 -256 94 0
-605 265 0
-605 86 0
-605 256 0
-605 -94 0
606 -263 -95 -256 87 0
-606 263 0
-606 95 0
-606 256 0
-606 -87 0
607 -266 -87 -256 95 0
-607 266 0
-607 87 0
-607 256 0
-607 -95 0
608 -264 -96 -256 88 0
-608 264 0
-608 96 0
-608 256 0
-608 -88 0
609 -267 -88 -256 96 0
-609 267 0
-609 88 0
-609 256 0
-609 -96 0
-257 268 0
610 -256 -268 0
-610 256 0
-610 268 0
269 -41 -6 5 0
-269 41 0
-269 6 0
-269 -5 0
611 -269 0
-611 269 0
612 -93 -269 105 0
-612 93 0
-612 269 0
-612 -105 0
613 -272 -269 105 93 0
-613 272 0
-613 269 0
-613 -105 0
-613 -93 0
614 -272 -105 -93 -269 0
-614 272 0
-614 105 0
-614 93 0
-614 269 0
615 -94 -269 106 0
-615 94 0
-615 269 0
-615 -106 0
616 -273 -269 106 94 0
-616 273 0
-616 269 0
-616 -106 0
-616 -94 0
617 -273 -106 -94 -269 0
-617 273 0
-617 106 0
-617 94 0
-617 269 0
618 -95 -269 107 0
-618 95 0
-618 269 0
-618 -107 0
619 -274 -269 107 95 0
-619 274 0
-619 269 0
-619 -107 0
-619 -95 0
620 -274 -107 -95 -269 0
-620 274 0
-620 107 0
-620 95 0
-620 269 0
274 -96 -269 108 0
-274 96 0
-274 269 0
-274 -108 0
270 -269 -271 0
-270 269 0
-270 271 0
621 -270 252 0
-621 270 0
-621 -252 0
622 -105 -93 -269 0
-622 105 0
-622 93 0
-622 269 0
623 -269 105 93 0
-623 269 0
-623 -105 0
-623 -93 0
624 -275 -106 -94 -269 0
-624 275 0
-624 106 0
-624 94 0
-624 269 0
625 -275 -269 106 94 0
-625 275 0
-625 269 0
-625 -106 0
-625 -94 0
626 -276 -107 -95 -269 0
-626 276 0
-626 107 0
-626 95 0
-626 269 0
627 -276 -269 107 95 0
-627 276 0
-627 269 0
-627 -107 0
-627 -95 0
278 -93 -269 105 0
-278 93 0
-278 269 0
-278 -105 0
628 -275 -94 -269 106 0
-628 275 0
-628 94 0
-628 269 0
-628 -106 0
629 -278 -106 -269 94 0
-629 278 0
-629 106 0
-629 269 0
-629 -94 0
630 -276 -95 -269 107 0
-630 276 0
-630 95 0
-630 269 0
-630 -107 0
631 -279 -107 -269 95 0
-631 279 0
-631 107 0
-631 269 0
-631 -95 0
632 -277 -96 -269 108 0
-632 277 0
-632 96 0
-632 269 0
-632 -108 0
633 -280 -108 -269 96 0
-633 280 0
-633 108 0
-633 269 0
-633 -96 0
-270 281 0
634 -269 -281 0
-634 269 0
-634 281 0
-254 255 0
-38 254 252 0
284 -97 0
-284 97 0
-98 -284 0
-99 -284 0
-100 -284 0
-97 -39 -283 0
-97 39 0
-98 -39 -283 0
-98 39 0
-99 -39 -283 0
-99 39 0
-100 -39 -283 0
-100 39 0
287 -37 -16 15 0
-287 37 0
-287 16 0
-287 -15 0
39 -287 0
-39 287 0
635 -97 -287 89 0
-635 97 0
-635 287 0
-635 -89 0
636 -290 -287 89 97 0
-636 290 0
-636 287 0
-636 -89 0
-636 -97 0
637 -290 -89 -97 -287 0
-637 290 0
-637 89 0
-637 97 0
-637 287 0
638 -98 -287 90 0
-638 98 0
-638 287 0
-638 -90 0
639 -291 -287 90 98 0
-639 291 0
-639 287 0
-639 -90 0
-639 -98 0
640 -291 -90 -98 -287 0
-640 291 0
-640 90 0
-640 98 0
-640 287 0
641 -99 -287 91 0
-641 99 0
-641 287 0
-641 -91 0
642 -292 -287 91 99 0
-642 292 0
-642 287 0
-642 -91 0
-642 -99 0
643 -292 -91 -99 -287 0
-643 292 0
-643 91 0
-643 99 0
-643 287 0
292 -100 -287 92 0
-292 100 0
-292 287 0
-292 -92 0
288 -287 -289 0
-288 287 0
-288 289 0
285 -288 283 0
-285 288 0
-285 -283 0
644 -89 -97 -287 0
-644 89 0
-644 97 0
-644 287 0
645 -287 89 97 0
-645 287 0
-645 -89 0
-645 -97 0
646 -293 -90 -98 -287 0
-646 293 0
-646 90 0
-646 98 0
-646 287 0
647 -293 -287 90 98 0
-647 293 0
-647 287 0
-647 -90 0
-647 -98 0
648 -294 -91 -99 -287 0
-648 294 0
-648 91 0
-648 99 0
-648 287 0
649 -294 -287 91 99 0
-649 294 0
-649 287 0
-649 -91 0
-649 -99 0
296 -97 -287 89 0
-296 97 0
-296 287 0
-296 -89 0
650 -293 -98 -287 90 0
-650 293 0
-650 98 0
-650 287 0
-650 -90 0
651 -296 -90 -287 98 0
-651 296 0
-651 90 0
-651 287 0
-651 -98 0
652 -294 -99 -287 91 0
-652 294 0
-652 99 0
-652 287 0
-652 -91 0
653 -297 -91 -287 99 0
-653 297 0
-653 91 0
-653 287 0
-653 -99 0
654 -295 -100 -287 92 0
-654 295 0
-654 100 0
-654 287 0
-654 -92 0
655 -298 -92 -287 100 0
-655 298 0
-655 92 0
-655 287 0
-655 -100 0
-288 299 0
286 -287 -299 0
-286 287 0
-286 299 0
-285 286 0
-39 285 283 0
302 -101 0
-302 101 0
-102 -302 0
-103 -302 0
-104 -302 0
-101 -40 -301 0
-101 40 0
-102 -40 -301 0
-102 40 0
-103 -40 -301 0
-103 40 0
-104 -40 -301 0
-104 40 0
305 -37 -19 15 16 0
-305 37 0
-305 19 0
-305 -15 0
-305 -16 0
40 -305 0
-40 305 0
656 -101 -305 89 0
-656 101 0
-656 305 0
-656 -89 0
657 -308 -305 89 101 0
-657 308 0
-657 305 0
-657 -89 0
-657 -101 0
658 -308 -89 -101 -305 0
-658 308 0
-658 89 0
-658 101 0
-658 305 0
659 -102 -305 90 0
-659 102 0
-659 305 0
-659 -90 0
660 -309 -305 90 102 0
-660 309 0
-660 305 0
-660 -90 0
-660 -102 0
661 -309 -90 -102 -305 0
-661 309 0
-661 90 0
-661 102 0
-661 305 0
662 -103 -305 91 0
-662 103 0
-662 305 0
-662 -91 0
663 -310 -305 91 103 0
-663 310 0
-663 305 0
-663 -91 0
-663 -103 0
664 -310 -91 -103 -305 0
-664 310 0
-664 91 0
-664 103 0
-664 305 0
310 -104 -305 92 0
-310 104 0
-310 305 0
-310 -92 0
306 -305 -307 0
-306 305 0
-306 307 0
303 -306 301 0
-303 306 0
-303 -301 0
665 -89 -101 -305 0
-665 89 0
-665 101 0
-665 305 0
666 -305 89 101 0
-666 305 0
-666 -89 0
-666 -101 0
667 -311 -90 -102 -305 0
-667 311 0
-667 90 0
-667 102 0
-667 305 0
668 -311 -305 90 102 0
-668 311 0
-668 305 0
-668 -90 0
-668 -102 0
669 -312 -91 -103 -305 0
-669 312 0
-669 91 0
-669 103 0
-669 305 0
670 -312 -305 91 103 0
-670 312 0
-670 305 0
-670 -91 0
-670 -103 0
314 -101 -305 89 0
-314 101 0
-314 305 0
-314 -89 0
671 -311 -102 -305 90 0
-671 311 0
-671 102 0
-671 305 0
-671 -90 0
672 -314 -90 -305 102 0
-672 314 0
-672 90 0
-672 305 0
-672 -102 0
673 -312 -103 -305 91 0
-673 312 0
-673 103 0
-673 305 0
-673 -91 0
674 -315 -91 -305 103 0
-674 315 0
-674 91 0
-674 305 0
-674 -103 0
675 -313 -104 -305 92 0
-675 313 0
-675 104 0
-675 305 0
-675 -92 0
676 -316 -92 -305 104 0
-676 316 0
-676 92 0
-676 305 0
-676 -104 0
-306 317 0
304 -305 -317 0
-304 305 0
-304 317 0
-303 304 0
-40 303 301 0
320 -105 0
-320 105 0
-106 -320 0
-107 -320 0
-108 -320 0
-105 -41 -319 0
-105 41 0
-106 -41 -319 0
-106 41 0
-107 -41 -319 0
-107 41 0
-108 -41 -319 0
-108 41 0
323 -38 -8 7 0
-323 38 0
-323 8 0
-323 -7 0
677 -323 0
-677 323 0
678 -105 -323 93 0
-678 105 0
-678 323 0
-678 -93 0
679 -326 -323 93 105 0
-679 326 0
-679 323 0
-679 -93 0
-679 -105 0
680 -326 -93 -105 -323 0
-680 326 0
-680 93 0
-680 105 0
-680 323 0
681 -106 -323 94 0
-681 106 0
-681 323 0
-681 -94 0
682 -327 -323 94 106 0
-682 327 0
-682 323 0
-682 -94 0
-682 -106 0
683 -327 -94 -106 -323 0
-683 327 0
-683 94 0
-683 106 0
-683 323 0
684 -107 -323 95 0
-684 107 0
-684 323 0
-684 -95 0
685 -328 -323 95 107 0
-685 328 0
-685 323 0
-685 -95 0
-685 -107 0
686 -328 -95 -107 -323 0
-686 328 0
-686 95 0
-686 107 0
-686 323 0
328 -108 -323 96 0
-328 108 0
-328 323 0
-328 -96 0
324 -323 -325 0
-324 323 0
-324 325 0
687 -324 319 0
-687 324 0
-687 -319 0
688 -93 -105 -323 0
-688 93 0
-688 105 0
-688 323 0
689 -323 93 105 0
-689 323 0
-689 -93 0
-689 -105 0
690 -329 -94 -106 -323 0
-690 329 0
-690 94 0
-690 106 0
-690 323 0
691 -329 -323 94 106 0
-691 329 0
-691 323 0
-691 -94 0
-691 -106 0
692 -330 -95 -107 -323 0
-692 330 0
-692 95 0
-692 107 0
-692 323 0
693 -330 -323 95 107 0
-693 330 0
-693 323 0
-693 -95 0
-693 -107 0
332 -105 -323 93 0
-332 105 0
-332 323 0
-332 -93 0
694 -329 -106 -323 94 0
-694 329 0
-694 106 0
-694 323 0
-694 -94 0
695 -332 -94 -323 106 0
-695 332 0
-695 94 0
-695 323 0
-695 -106 0
696 -330 -107 -323 95 0
-696 330 0
-696 107 0
-696 323 0
-696 -95 0
697 -333 -95 -323 107 0
-697 333 0
-697 95 0
-697 323 0
-697 -107 0
698 -331 -108 -323 96 0
-698 331 0
-698 108 0
-698 323 0
-698 -96 0
699 -334 -96 -323 108 0
-699 334 0
-699 96 0
-699 323 0
-699 -108 0
-324 335 0
700 -323 -335 0
-700 323 0
-700 335 0
336 -42 -4 3 0
-336 42 0
-336 4 0
-336 -3 0
701 -336 0
-701 336 0
702 -105 -336 109 0
-702 105 0
-702 336 0
-702 -109 0
703 -339 -336 109 105 0
-703 339 0
-703 336 0
-703 -109 0
-703 -105 0
704 -339 -109 -105 -336 0
-704 339 0
-704 109 0
-704 105 0
-704 336 0
705 -106 -336 110 0
-705 106 0
-705 336 0
-705 -110 0
706 -340 -336 110 106 0
-706 340 0
-706 336 0
-706 -110 0
-706 -106 0
707 -340 -110 -106 -336 0
-707 340 0
-707 110 0
-707 106 0
-707 336 0
708 -107 -336 111 0
-708 107 0
-708 336 0
-708 -111 0
709 -341 -336 111 107 0
-709 341 0
-709 336 0
-709 -111 0
-709 -107 0
710 -341 -111 -107 -336 0
-710 341 0
-710 111 0
-710 107 0
-710 336 0
341 -108 -336 112 0
-341 108 0
-341 336 0
-341 -112 0
337 -336 -338 0
-337 336 0
-337 338 0
711 -337 319 0
-711 337 0
-711 -319 0
712 -109 -105 -336 0
-712 109 0
-712 105 0
-712 336 0
713 -336 109 105 0
-713 336 0
-713 -109 0
-713 -105 0
714 -342 -110 -106 -336 0
-714 342 0
-714 110 0
-714 106 0
-714 336 0
715 -342 -336 110 106 0
-715 342 0
-715 336 0
-715 -110 0
-715 -106 0
716 -343 -111 -107 -336 0
-716 343 0
-716 111 0
-716 107 0
-716 336 0
717 -343 -336 111 107 0
-717 343 0
-717 336 0
-717 -111 0
-717 -107 0
345 -105 -336 109 0
-345 105 0
-345 336 0
-345 -109 0
718 -342 -106 -336 110 0
-718 342 0
-718 106 0
-718 336 0
-718 -110 0
719 -345 -110 -336 106 0
-719 345 0
-719 110 0
-719 336 0
-719 -106 0
720 -343 -107 -336 111 0
-720 343 0
-720 107 0
-720 336 0
-720 -111 0
721 -346 -111 -336 107 0
-721 346 0
-721 111 0
-721 336 0
-721 -107 0
722 -344 -108 -336 112 0
-722 344 0
-722 108 0
-722 336 0
-722 -112 0
723 -347 -112 -336 108 0
-723 347 0
-723 112 0
-723 336 0
-723 -108 0
-337 348 0
724 -336 -348 0
-724 336 0
-724 348 0
-321 322 0
-41 321 319 0
351 -109 0
-351 109 0
-110 -351 0
-111 -351 0
-112 -351 0
-109 -42 -350 0
-109 42 0
-110 -42 -350 0
-110 42 0
-111 -42 -350 0
-111 42 0
-112 -42 -350 0
-112 42 0
354 -41 -34 5 6 0
-354 41 0
-354 34 0
-354 -5 0
-354 -6 0
42 -354 0
-42 354 0
725 -109 -354 105 0
-725 109 0
-725 354 0
-725 -105 0
726 -357 -354 105 109 0
-726 357 0
-726 354 0
-726 -105 0
-726 -109 0
727 -357 -105 -109 -354 0
-727 357 0
-727 105 0
-727 109 0
-727 354 0
728 -110 -354 106 0
-728 110 0
-728 354 0
-728 -106 0
729 -358 -354 106 110 0
-729 358 0
-729 354 0
-729 -106 0
-729 -110 0
730 -358 -106 -110 -354 0
-730 358 0
-730 106 0
-730 110 0
-730 354 0
731 -111 -354 107 0
-731 111 0
-731 354 0
-731 -107 0
732 -359 -354 107 111 0
-732 359 0
-732 354 0
-732 -107 0
-732 -111 0
733 -359 -107 -111 -354 0
-733 359 0
-733 107 0
-733 111 0
-733 354 0
359 -112 -354 108 0
-359 112 0
-359 354 0
-359 -108 0
355 -354 -356 0
-355 354 0
-355 356 0
352 -355 350 0
-352 355 0
-352 -350 0
734 -105 -109 -354 0
-734 105 0
-734 109 0
-734 354 0
735 -354 105 109 0
-735 354 0
-735 -105 0
-735 -109 0
736 -360 -106 -110 -354 0
-736 360 0
-736 106 0
-736 110 0
-736 354 0
737 -360 -354 106 110 0
-737 360 0
-737 354 0
-737 -106 0
-737 -110 0
738 -361 -107 -111 -354 0
-738 361 0
-738 107 0
-738 111 0
-738 354 0
739 -361 -354 107 111 0
-739 361 0
-739 354 0
-739 -107 0
-739 -111 0
363 -109 -354 105 0
-363 109 0
-363 354 0
-363 -105 0
740 -360 -110 -354 106 0
-740 360 0
-740 110 0
-740 354 0
-740 -106 0
741 -363 -106 -354 110 0
-741 363 0
-741 106 0
-741 354 0
-741 -110 0
742 -361 -111 -354 107 0
-742 361 0
-742 111 0
-742 354 0
-742 -107 0
743 -364 -107 -354 111 0
-743 364 0
-743 107 0
-743 354 0
-743 -111 0
744 -362 -112 -354 108 0
-744 362 0
-744 112 0
-744 354 0
-744 -108 0
745 -365 -108 -354 112 0
-745 365 0
-745 108 0
-745 354 0
-745 -112 0
-355 366 0
353 -354 -366 0
-353 354 0
-353 366 0
-352 353 0
-42 352 350 0
746 -6 0
-746 6 0
747 -34 0
-747 34 0
748 -32 0
-748 32 0
749 -33 0
-749 33 0
750 -9 0
-750 9 0
751 -8 0
-751 8 0
752 -12 0
-752 12 0
753 -14 0
-753 14 0
754 -22 0
-754 22 0
755 -23 0
-755 23 0
48 0
49 3 0
-49 -3 0
50 4 0
-50 -4 0
51 5 0
-51 -5 0
52 6 0
-52 -6 0
53 7 0
-53 -7 0
54 8 0
-54 -8 0
55 9 0
-55 -9 0
56 10 0
-56 -10 0
57 11 0
-57 -11 0
58 13 0
-58 -13 0
59 14 0
-59 -14 0
60 15 0
-60 -15 0
61 16 0
-61 -16 0
62 17 0
-62 -17 0
63 18 0
-63 -18 0
64 19 0
-64 -19 0
65 20 0
-65 -20 0
66 21 0
-66 -21 0
67 23 0
-67 -23 0
68 24 0
-68 -24 0
69 25 0
-69 -25 0
70 27 0
-70 -27 0
71 28 0
-71 -28 0
72 29 0
-72 -29 0
73 30 0
-73 -30 0
74 31 0
-74 -31 0
75 33 0
-75 -33 0
76 34 0
-76 -34 0
-1 0
-1 0
-2 0
-12 367 368 0
12 -367 0
12 -368 0
-22 369 370 0
22 -369 0
22 -370 0
-26 371 372 396 0
26 -371 0
26 -372 0
26 -396 0
-32 420 421 0
32 -420 0
32 -421 0
-36 443 467 491 0
36 -443 0
36 -467 0
36 -491 0
-37 515 539 563 0
37 -515 0
37 -539 0
37 -563 0
-38 587 611 0
38 -587 0
38 -611 0
-41 677 701 0
41 -677 0
41 -701 0
-43 746 747 0
43 -746 0
43 -747 0
-44 748 749 0
44 -748 0
44 -749 0
-45 750 751 0
45 -750 0
45 -751 0
-46 752 753 0
46 -752 0
46 -753 0
-47 754 755 0
47 -754 0
47 -755 0
-113 0
-116 382 406 0
116 -382 0
116 -406 0
-117 395 419 0
117 -395 0
117 -419 0
-121 373 374 375 0
121 -373 0
121 -374 0
121 -375 0
-122 376 377 378 0
122 -376 0
122 -377 0
122 -378 0
-123 379 380 381 0
123 -379 0
123 -380 0
123 -381 0
-125 383 384 0
125 -383 0
125 -384 0
-126 385 386 0
126 -385 0
126 -386 0
-127 387 388 0
127 -387 0
127 -388 0
-129 389 390 0
129 -389 0
129 -390 0
-130 391 392 0
130 -391 0
130 -392 0
-131 393 394 0
131 -393 0
131 -394 0
-134 397 398 399 0
134 -397 0
134 -398 0
134 -399 0
-135 400 401 402 0
135 -400 0
135 -401 0
135 -402 0
-136 403 404 405 0
136 -403 0
136 -404 0
136 -405 0
-138 407 408 0
138 -407 0
138 -408 0
-139 409 410 0
139 -409 0
139 -410 0
-140 411 412 0
140 -411 0
140 -412 0
-142 413 414 0
142 -413 0
142 -414 0
-143 415 416 0
143 -415 0
143 -416 0
-144 417 418 0
144 -417 0
144 -418 0
-145 0
-146 0
-152 422 423 424 0
152 -422 0
152 -423 0
152 -424 0
-153 425 426 427 0
153 -425 0
153 -426 0
153 -427 0
-154 428 429 430 0
154 -428 0
154 -429 0
154 -430 0
-156 431 432 0
156 -431 0
156 -432 0
-157 433 434 0
157 -433 0
157 -434 0
-158 435 436 0
158 -435 0
158 -436 0
-160 437 438 0
160 -437 0
160 -438 0
-161 439 440 0
161 -439 0
161 -440 0
-162 441 442 0
162 -441 0
162 -442 0
-163 0
-164 0
-166 453 477 501 0
166 -453 0
166 -477 0
166 -501 0
-167 466 490 514 0
167 -466 0
167 -490 0
167 -514 0
-170 444 445 446 0
170 -444 0
170 -445 0
170 -446 0
-171 447 448 449 0
171 -447 0
171 -448 0
171 -449 0
-172 450 451 452 0
172 -450 0
172 -451 0
172 -452 0
-174 454 455 0
174 -454 0
174 -455 0
-175 456 457 0
175 -456 0
175 -457 0
-176 458 459 0
176 -458 0
176 -459 0
-178 460 461 0
178 -460 0
178 -461 0
-179 462 463 0
179 -462 0
179 -463 0
-180 464 465 0
180 -464 0
180 -465 0
-183 468 469 470 0
183 -468 0
183 -469 0
183 -470 0
-184 471 472 473 0
184 -471 0
184 -472 0
184 -473 0
-185 474 475 476 0
185 -474 0
185 -475 0
185 -476 0
-187 478 479 0
187 -478 0
187 -479 0
-188 480 481 0
188 -480 0
188 -481 0
-189 482 483 0
189 -482 0
189 -483 0
-191 484 485 0
191 -484 0
191 -485 0
-192 486 487 0
192 -486 0
192 -487 0
-193 488 489 0
193 -488 0
193 -489 0
-196 492 493 494 0
196 -492 0
196 -493 0
196 -494 0
-197 495 496 497 0
197 -495 0
197 -496 0
197 -497 0
-198 498 499 500 0
198 -498 0
198 -499 0
198 -500 0
-200 502 503 0
200 -502 0
200 -503 0
-201 504 505 0
201 -504 0
201 -505 0
-202 506 507 0
202 -506 0
202 -507 0
-204 508 509 0
204 -508 0
204 -509 0
-205 510 511 0
205 -510 0
205 -511 0
-206 512 513 0
206 -512 0
206 -513 0
-207 0
-208 0
-210 525 549 573 0
210 -525 0
210 -549 0
210 -573 0
-211 538 562 586 0
211 -538 0
211 -562 0
211 -586 0
-214 516 517 518 0
214 -516 0
214 -517 0
214 -518 0
-215 519 520 521 0
215 -519 0
215 -520 0
215 -521 0
-216 522 523 524 0
216 -522 0
216 -523 0
216 -524 0
-218 526 527 0
218 -526 0
218 -527 0
-219 528 529 0
219 -528 0
219 -529 0
-220 530 531 0
220 -530 0
220 -531 0
-222 532 533 0
222 -532 0
222 -533 0
-223 534 535 0
223 -534 0
223 -535 0
-224 536 537 0
224 -536 0
224 -537 0
-227 540 541 542 0
227 -540 0
227 -541 0
227 -542 0
-228 543 544 545 0
228 -543 0
228 -544 0
228 -545 0
-229 546 547 548 0
229 -546 0
229 -547 0
229 -548 0
-231 550 551 0
231 -550 0
231 -551 0
-232 552 553 0
232 -552 0
232 -553 0
-233 554 555 0
233 -554 0
233 -555 0
-235 556 557 0
235 -556 0
235 -557 0
-236 558 559 0
236 -558 0
236 -559 0
-237 560 561 0
237 -560 0
237 -561 0
-240 564 565 566 0
240 -564 0
240 -565 0
240 -566 0
-241 567 568 569 0
241 -567 0
241 -568 0
241 -569 0
-242 570 571 572 0
242 -570 0
242 -571 0
242 -572 0
-244 574 575 0
244 -574 0
244 -575 0
-245 576 577 0
245 -576 0
245 -577 0
-246 578 579 0
246 -578 0
246 -579 0
-248 580 581 0
248 -580 0
248 -581 0
-249 582 583 0
249 -582 0
249 -583 0
-250 584 585 0
250 -584 0
250 -585 0
-251 0
-252 0
-254 597 621 0
254 -597 0
254 -621 0
-255 610 634 0
255 -610 0
255 -634 0
-258 588 589 590 0
258 -588 0
258 -589 0
258 -590 0
-259 591 592 593 0
259 -591 0
259 -592 0
259 -593 0
-260 594 595 596 0
260 -594 0
260 -595 0
260 -596 0
-262 598 599 0
262 -598 0
262 -599 0
-263 600 601 0
263 -600 0
263 -601 0
-264 602 603 0
264 -602 0
264 -603 0
-266 604 605 0
266 -604 0
266 -605 0
-267 606 607 0
267 -606 0
267 -607 0
-268 608 609 0
268 -608 0
268 -609 0
-271 612 613 614 0
271 -612 0
271 -613 0
271 -614 0
-272 615 616 617 0
272 -615 0
272 -616 0
272 -617 0
-273 618 619 620 0
273 -618 0
273 -619 0
273 -620 0
-275 622 623 0
275 -622 0
275 -623 0
-276 624 625 0
276 -624 0
276 -625 0
-277 626 627 0
277 -626 0
277 -627 0
-279 628 629 0
279 -628 0
279 -629 0
-280 630 631 0
280 -630 0
280 -631 0
-281 632 633 0
281 -632 0
281 -633 0
-282 0
-283 0
-289 635 636 637 0
289 -635 0
289 -636 0
289 -637 0
-290 638 639 640 0
290 -638 0
290 -639 0
290 -640 0
-291 641 642 643 0
291 -641 0
291 -642 0
291 -643 0
-293 644 645 0
293 -644 0
293 -645 0
-294 646 647 0
294 -646 0
294 -647 0
-295 648 649 0
295 -648 0
295 -649 0
-297 650 651 0
297 -650 0
297 -651 0
-298 652 653 0
298 -652 0
298 -653 0
-299 654 655 0
299 -654 0
299 -655 0
-300 0
-301 0
-307 656 657 658 0
307 -656 0
307 -657 0
307 -658 0
-308 659 660 661 0
308 -659 0
308 -660 0
308 -661 0
-309 662 663 664 0
309 -662 0
309 -663 0
309 -664 0
-311 665 666 0
311 -665 0
311 -666 0
-312 667 668 0
312 -667 0
312 -668 0
-313 669 670 0
313 -669 0
313 -670 0
-315 671 672 0
315 -671 0
315 -672 0
-316 673 674 0
316 -673 0
316 -674 0
-317 675 676 0
317 -675 0
317 -676 0
-318 0
-319 0
-321 687 711 0
321 -687 0
321 -711 0
-322 700 724 0
322 -700 0
322 -724 0
-325 678 679 680 0
325 -678 0
325 -679 0
325 -680 0
-326 681 682 683 0
326 -681 0
326 -682 0
326 -683 0
-327 684 685 686 0
327 -684 0
327 -685 0
327 -686 0
-329 688 689 0
329 -688 0
329 -689 0
-330 690 691 0
330 -690 0
330 -691 0
-331 692 693 0
331 -692 0
331 -693 0
-333 694 695 0
333 -694 0
333 -695 0
-334 696 697 0
334 -696 0
334 -697 0
-335 698 699 0
335 -698 0
335 -699 0
-338 702 703 704 0
338 -702 0
338 -703 0
338 -704 0
-339 705 706 707 0
339 -705 0
339 -706 0
339 -707 0
-340 708 709 710 0
340 -708 0
340 -709 0
340 -710 0
-342 712 713 0
342 -712 0
342 -713 0
-343 714 715 0
343 -714 0
343 -715 0
-344 716 717 0
344 -716 0
344 -717 0
-346 718 719 0
346 -718 0
346 -719 0
-347 720 721 0
347 -720 0
347 -721 0
-348 722 723 0
348 -722 0
348 -723 0
-349 0
-350 0
-356 725 726 727 0
356 -725 0
356 -726 0
356 -727 0
-357 728 729 730 0
357 -728 0
357 -729 0
357 -730 0
-358 731 732 733 0
358 -731 0
358 -732 0
358 -733 0
-360 734 735 0
360 -734 0
360 -735 0
-361 736 737 0
361 -736 0
361 -737 0
-362 738 739 0
362 -738 0
362 -739 0
-364 740 741 0
364 -740 0
364 -741 0
-365 742 743 0
365 -742 0
365 -743 0
-366 744 745 0
366 -744 0
366 -745 0
c p auxilliary 1 2 49 50 51 52 53 54 55 56 57 58 59 60 61 62 63 64 65 66 67 68 69 70 71 72 73 74 75 76 77 78 79 80 81 82 83 84 85 86 87 88 89 90 91 92 93 94 95 96 97 98 99 100 101 102 103 104 105 106 107 108 109 110 111 112 113 114 115 116 117 118 119 120 121 122 123 124 125 126 127 128 129 130 131 132 133 134 135 136 137 138 139 140 141 142 143 144 145 146 147 148 149 150 151 152 153 154 155 156 157 158 159 160 161 162 163 164 165 166 167 168 169 170 171 172 173 174 175 176 177 178 179 180 181 182 183 184 185 186 187 188 189 190 191 192 193 194 195 196 197 198 199 200 201 202 203 204 205 206 207 208 209 210 211 212 213 214 215 216 217 218 219 220 221 222 223 224 225 226 227 228 229 230 231 232 233 234 235 236 237 238 239 240 241 242 243 244 245 246 247 248 249 250 251 252 253 254 255 256 257 258 259 260 261 262 263 264 265 266 267 268 269 270 271 272 273 274 275 276 277 278 279 280 281 282 283 284 285 286 287 288 289 290 291 292 293 294 295 296 297 298 299 300 301 302 303 304 305 306 307 308 309 310 311 312 313 314 315 316 317 318 319 320 321 322 323 324 325 326 327 328 329 330 331 332 333 334 335 336 337 338 339 340 341 342 343 344 345 346 347 348 349 350 351 352 353 354 355 356 357 358 359 360 361 362 363 364 365 366 367 368 369 370 371 372 373 374 375 376 377 378 379 380 381 382 383 384 385 386 387 388 389 390 391 392 393 394 395 396 397 398 399 400 401 402 403 404 405 406 407 408 409 410 411 412 413 414 415 416 417 418 419 420 421 422 423 424 425 426 427 428 429 430 431 432 433 434 435 436 437 438 439 440 441 442 443 444 445 446 447 448 449 450 451 452 453 454 455 456 457 458 459 460 461 462 463 464 465 466 467 468 469 470 471 472 473 474 475 476 477 478 479 480 481 482 483 484 485 486 487 488 489 490 491 492 493 494 495 496 497 498 499 500 501 502 503 504 505 506 507 508 509 510 511 512 513 514 515 516 517 518 519 520 521 522 523 524 525 526 527 528 529 530 531 532 533 534 535 536 537 538 539 540 541 542 543 544 545 546 547 548 549 550 551 552 553 554 555 556 557 558 559 560 561 562 563 564 565 566 567 568 569 570 571 572 573 574 575 576 577 578 579 580 581 582 583 584 585 586 587 588 589 590 591 592 593 594 595 596 597 598 599 600 601 602 603 604 605 606 607 608 609 610 611 612 613 614 615 616 617 618 619 620 621 622 623 624 625 626 627 628 629 630 631 632 633 634 635 636 637 638 639 640 641 642 643 644 645 646 647 648 649 650 651 652 653 654 655 656 657 658 659 660 661 662 663 664 665 666 667 668 669 670 671 672 673 674 675 676 677 678 679 680 681 682 683 684 685 686 687 688 689 690 691 692 693 694 695 696 697 698 699 700 701 702 703 704 705 706 707 708 709 710 711 712 713 714 715 716 717 718 719 720 721 722 723 724 725 726 727 728 729 730 731 732 733 734 735 736 737 738 739 740 741 742 743 744 745 746 747 748 749 750 751 752 753 754 755 0
